DIMENSION :21
NODE_COORD_SECTION
1 -66.94202891305183 56.480082844714275
2 73.2975461086439 -29.170486475568254
3 80.57572289078848 39.443474209474545
4 -82.08660793091425 -88.65182655297387
5 11.772363454895512 66.90574336466719
6 -26.77738814607062 15.667122371425052
7 22.413287114993395 92.42466972839975
8 58.973846648085015 50.89667783989239
9 -34.761680714456574 24.725225896085206
10 43.23970881011684 -20.33432722770563
11 21.239854941849174 71.52992497318007
12 -62.25594201088293 94.78015823922402
13 -47.27393846833083 40.44422806828533
14 -54.99093262964217 -46.34727904048228
15 -55.11095295114807 5.618984912278307
16 -98.75091784936127 -22.03747726998155
17 87.32452616734622 45.20085955570201
18 -30.71012599072742 -29.079648198055878
19 72.92612798622787 82.1208480100315
20 -72.60665116774514 -77.3229347594587
21 -1.1960470946347215 19.55990532591818
EOF
